DATASET = "thpack8";
INSTANCE = "001";

WIDTH = 2000;
HEIGHT = 1000;
LENGTH = 3000;

NO_OF_SHAPES = 7;
size = [|
  400,375,300 |
  400,400,150 |
  300,150,200 |
  900,200,275 |
  800,150,275 |
  1500,150,200 |
  900,200,200 |
|];

verticality = [|
  0,0,1 |
  0,0,1 |
  0,0,1 |
  0,0,1 |
  0,0,1 |
  0,0,1 |
  0,0,1 |
|];

box_count = [
  24,
  10,
  11,
  14,
  6,
  20,
  15,
];
